\ENCODING=ISO-8859-1
\Problem name: .\Input\pgp2\pgp2.cor

Minimize
 FOBJ: 10 INVEQ1#0 + 7 INVEQ2#1 + 16 INVEQ3#2 + 6 INVEQ4#3 + 40 _EQ1ND1#4
       + 24 _EQ1ND2#5 + 4 _EQ1ND3#6 + 45 _EQ2ND1#7 + 27 _EQ2ND2#8
       + 4.5 _EQ2ND3#9 + 32 _EQ3ND1#10 + 19.2 _EQ3ND2#11 + 3.2 _EQ3ND3#12
       + 55 _EQ4ND1#13 + 33 _EQ4ND2#14 + 5.5 _EQ4ND3#15 + 1000 PEN1#16
       + 1000 PEN2#17 + 1000 PEN3#18 + 1000 PEN4#19
Subject To
 MXDEMD: INVEQ1#0 + INVEQ2#1 + INVEQ3#2 + INVEQ4#3 >= 15
 BUDGET: 10 INVEQ1#0 + 7 INVEQ2#1 + 16 INVEQ3#2 + 6 INVEQ4#3 <= 220
 CAPEQ1: - INVEQ1#0 + _EQ1ND1#4 + _EQ1ND2#5 + _EQ1ND3#6 - PEN1#16 <= 0
 CAPEQ2: - INVEQ2#1 + _EQ2ND1#7 + _EQ2ND2#8 + _EQ2ND3#9 - PEN2#17 <= 0
 CAPEQ3: - INVEQ3#2 + _EQ3ND1#10 + _EQ3ND2#11 + _EQ3ND3#12 - PEN3#18 <= 0
 CAPEQ4: - INVEQ4#3 + _EQ4ND1#13 + _EQ4ND2#14 + _EQ4ND3#15 - PEN4#19 <= 0
 DNODE1: _EQ1ND1#4 + _EQ2ND1#7 + _EQ3ND1#10 + _EQ4ND1#13 >= 5
 DNODE2: _EQ1ND2#5 + _EQ2ND2#8 + _EQ3ND2#11 + _EQ4ND2#14 >= 4
 DNODE3: _EQ1ND3#6 + _EQ2ND3#9 + _EQ3ND3#12 + _EQ4ND3#15 >= 3
End
